p edge 30 39 20
v 1 5
v 1 29
v 1 12
v 4 2 7 8 16
v 1 25
v 1 17
v 3 6 18 21
v 1 30
v 2 27 28
v 1 10
v 1 4
v 1 23
v 1 20
v 2 3 11
v 1 1
v 2 13 24
v 1 26
v 1 19
v 2 14 22
v 2 9 15
e 1 7
e 1 9
e 1 29
e 2 5
e 2 6
e 2 20
e 2 25
e 2 28
e 3 9
e 3 17
e 4 11
e 4 29
e 4 30
e 6 20
e 6 21
e 6 23
e 7 21
e 7 22
e 8 9
e 9 21
e 9 27
e 10 21
e 11 12
e 11 22
e 11 27
e 13 17
e 15 27
e 15 28
e 16 23
e 18 19
e 18 26
e 19 30
e 20 27
e 20 29
e 21 27
e 23 26
e 23 28
e 24 27
e 26 29
